9235
1101011101
3 6 3 0 5 7 5 5 3 7 7 0 1 9 0 1 9 7 5 3 6 6 0 0 0 6 7 3 3 7 7 7 3 3 3 5 1 9 0 6 0 9 9 9 5 5 5 5 5 3 3 5 3 6 0 0 6 6 7 7 9 7 7 7 3 3 0 3 3 3 3 6 6 0 0 3 3 3 3 0 3 5 5 1 7 5 6 7 7 7 9 1 1 6 1 9 1 9 6 9 